25° run output:
{
    "Function": "ClusterA300.tsp",
    "Problem dimension": [
        119,
        248,
        31,
        193,
        258,
        291,
        264,
        176,
        190,
        5,
        62,
        11,
        87,
        53,
        157,
        281,
        39,
        27,
        283,
        203,
        184,
        277,
        9,
        24,
        26,
        187,
        65,
        90,
        211,
        170,
        266,
        93,
        37,
        251,
        42,
        274,
        104,
        235,
        8,
        124,
        249,
        48,
        183,
        222,
        166,
        172,
        285,
        50,
        287,
        33,
        16,
        280,
        108,
        168,
        173,
        192,
        241,
        198,
        174,
        267,
        186,
        220,
        10,
        204,
        32,
        19,
        231,
        72,
        167,
        207,
        275,
        120,
        140,
        158,
        256,
        254,
        18,
        177,
        92,
        142,
        15,
        102,
        40,
        259,
        12,
        165,
        49,
        89,
        141,
        290,
        144,
        103,
        29,
        263,
        154,
        225,
        206,
        164,
        99,
        54,
        128,
        61,
        97,
        232,
        194,
        226,
        181,
        296,
        112,
        7,
        46,
        250,
        185,
        242,
        145,
        253,
        106,
        155,
        161,
        85,
        133,
        288,
        79,
        13,
        261,
        129,
        298,
        268,
        75,
        169,
        47,
        138,
        238,
        35,
        60,
        223,
        125,
        118,
        100,
        295,
        131,
        153,
        101,
        4,
        286,
        116,
        22,
        67,
        156,
        189,
        38,
        294,
        159,
        151,
        0,
        137,
        282,
        269,
        245,
        255,
        217,
        234,
        121,
        276,
        80,
        272,
        219,
        77,
        109,
        228,
        162,
        273,
        178,
        21,
        230,
        146,
        132,
        86,
        244,
        113,
        139,
        52,
        182,
        205,
        196,
        74,
        28,
        73,
        191,
        84,
        227,
        149,
        236,
        71,
        163,
        284,
        59,
        63,
        57,
        171,
        107,
        293,
        197,
        180,
        45,
        150,
        66,
        76,
        91,
        20,
        160,
        34,
        200,
        216,
        88,
        212,
        58,
        44,
        208,
        188,
        292,
        122,
        297,
        14,
        110,
        229,
        199,
        51,
        94,
        130,
        213,
        41,
        179,
        243,
        1,
        224,
        247,
        260,
        117,
        262,
        64,
        143,
        98,
        201,
        36,
        43,
        221,
        210,
        202,
        23,
        96,
        127,
        265,
        239,
        252,
        257,
        148,
        135,
        69,
        3,
        246,
        299,
        78,
        55,
        6,
        278,
        279,
        2,
        95,
        123,
        289,
        209,
        240,
        215,
        68,
        17,
        82,
        70,
        195,
        147,
        233,
        152,
        218,
        30,
        111,
        114,
        81,
        214,
        271,
        136,
        237,
        175,
        134,
        126,
        56,
        105,
        25,
        115,
        83,
        270
    ],
    "Global Optimum": 0,
    "Algorithm": "Genetic algorithm",
    "Parameters": {
        "population": 30,
        "offspring": 30,
        "mutation probability": 0.0033333333333333335,
        "crossover probability": 0.9
    },
    "Fitness": 400682,
    "Solution": [
        119,
        248,
        31,
        193,
        258,
        291,
        264,
        176,
        190,
        5,
        62,
        11,
        87,
        53,
        157,
        281,
        39,
        27,
        283,
        203,
        184,
        277,
        9,
        24,
        26,
        187,
        65,
        90,
        211,
        170,
        266,
        93,
        37,
        251,
        42,
        274,
        104,
        235,
        8,
        124,
        249,
        48,
        183,
        222,
        166,
        172,
        285,
        50,
        287,
        33,
        16,
        280,
        108,
        168,
        173,
        192,
        241,
        198,
        174,
        267,
        186,
        220,
        10,
        204,
        32,
        19,
        231,
        72,
        167,
        207,
        275,
        120,
        140,
        158,
        256,
        254,
        18,
        177,
        92,
        142,
        15,
        102,
        40,
        259,
        12,
        165,
        49,
        89,
        141,
        290,
        144,
        103,
        29,
        263,
        154,
        225,
        206,
        164,
        99,
        54,
        128,
        61,
        97,
        232,
        194,
        226,
        181,
        296,
        112,
        7,
        46,
        250,
        185,
        242,
        145,
        253,
        106,
        155,
        161,
        85,
        133,
        288,
        79,
        13,
        261,
        129,
        298,
        268,
        75,
        169,
        47,
        138,
        238,
        35,
        60,
        223,
        125,
        118,
        100,
        295,
        131,
        153,
        101,
        4,
        286,
        116,
        22,
        67,
        156,
        189,
        38,
        294,
        159,
        151,
        0,
        137,
        282,
        269,
        245,
        255,
        217,
        234,
        121,
        276,
        80,
        272,
        219,
        77,
        109,
        228,
        162,
        273,
        178,
        21,
        230,
        146,
        132,
        86,
        244,
        113,
        139,
        52,
        182,
        205,
        196,
        74,
        28,
        73,
        191,
        84,
        227,
        149,
        236,
        71,
        163,
        284,
        59,
        63,
        57,
        171,
        107,
        293,
        197,
        180,
        45,
        150,
        66,
        76,
        91,
        20,
        160,
        34,
        200,
        216,
        88,
        212,
        58,
        44,
        208,
        188,
        292,
        122,
        297,
        14,
        110,
        229,
        199,
        51,
        94,
        130,
        213,
        41,
        179,
        243,
        1,
        224,
        247,
        260,
        117,
        262,
        64,
        143,
        98,
        201,
        36,
        43,
        221,
        210,
        202,
        23,
        96,
        127,
        265,
        239,
        252,
        257,
        148,
        135,
        69,
        3,
        246,
        299,
        78,
        55,
        6,
        278,
        279,
        2,
        95,
        123,
        289,
        209,
        240,
        215,
        68,
        17,
        82,
        70,
        195,
        147,
        233,
        152,
        218,
        30,
        111,
        114,
        81,
        214,
        271,
        136,
        237,
        175,
        134,
        126,
        56,
        105,
        25,
        115,
        83,
        270
    ],
    "Nb of functions evaluations": 50010,
    "Computational time in seconds": 165.43236303329468,
    "Stopping criterion in evaluations": 50000
}